; benchmark generated from python API
(set-info :status unknown)
(declare-fun x_months () Int)
(declare-fun x_beta () Int)
(assert
 (<= (- 1200) x_months))
(assert
 (>= 1199 x_months))
(assert
 (>= x_beta 0))
(assert
 (let ((?x3973 (+ x_months 24003)))
 (let ((?x1663 (- ?x3973 (* (div (- ?x3973 1) 12) 12))))
 (let ((?x1658 (ite (or (= ?x1663 4) (= ?x1663 6) (= ?x1663 9) (= ?x1663 11)) 30 31)))
 (let (($x4578 (and (= (mod (div (- ?x3973 1) 12) 4) 0) (and (distinct (mod (div (- ?x3973 1) 12) 100) 0) true))))
 (let ((?x1478 (ite (or $x4578 (= (mod (div (- ?x3973 1) 12) 400) 0)) 29 28)))
 (< x_beta (ite (= ?x1663 2) ?x1478 ?x1658))))))))
(assert
 (let (($x4998 (and (= x_months (- (+ (* 2019 12) 12) 24003)) (<= 0 x_beta))))
 (or (> x_months (- (+ (* 2019 12) 12) 24003)) $x4998)))
(assert
 (let (($x4953 (and (= x_months (- (+ (* 2020 12) 2) 24003)) (>= 28 x_beta))))
 (or (< x_months (- (+ (* 2020 12) 2) 24003)) $x4953)))
(assert
 (let ((?x5587 (+ x_beta 1)))
(let ((?x5564 (+ (+ x_months 0) 24003)))
(let ((?x4322 (- ?x5564 (* (div (- ?x5564 1) 12) 12))))
(let ((?x5042 (ite (or (= ?x4322 4) (= ?x4322 6) (= ?x4322 9) (= ?x4322 11)) 30 31)))
(let (($x1224 (and (= (mod (div (- ?x5564 1) 12) 4) 0) (and (distinct (mod (div (- ?x5564 1) 12) 100) 0) true))))
(let (($x5646 (or $x1224 (= (mod (div (- ?x5564 1) 12) 400) 0))))
(let ((?x4864 (ite (= ?x4322 2) (ite $x5646 29 28) ?x5042)))
(let (($x4012 (> 1 ?x5587)))
(let ((?x5706 (ite $x4012 1 (ite (> ?x5587 ?x4864) ?x4864 ?x5587))))
(let ((?x5707 (ite (> 1 ?x5706) 1 (ite (> ?x5706 ?x4864) ?x4864 ?x5706))))
(let ((?x1452 (ite (= 2 ?x4322) (ite $x5646 31 31) (ite (= 1 ?x4322) (ite $x5646 0 0) 0))))
(let ((?x4260 (ite (= 4 ?x4322) (ite $x5646 91 90) (ite (= 3 ?x4322) (ite $x5646 60 59) ?x1452))))
(let ((?x5463 (ite (= 6 ?x4322) (ite $x5646 152 151) (ite (= 5 ?x4322) (ite $x5646 121 120) ?x4260))))
(let ((?x5460 (ite (= 8 ?x4322) (ite $x5646 213 212) (ite (= 7 ?x4322) (ite $x5646 182 181) ?x5463))))
(let ((?x5439 (ite (= 10 ?x4322) (ite $x5646 274 273) (ite (= 9 ?x4322) (ite $x5646 244 243) ?x5460))))
(let ((?x5408 (ite (= 12 ?x4322) (ite $x5646 335 334) (ite (= 11 ?x4322) (ite $x5646 305 304) ?x5439))))
(let ((?x4392 (+ (* 365 (- (div (- ?x5564 1) 12) 1)) (div (- (div (- ?x5564 1) 12) 1) 4))))
(let ((?x5422 (+ (- ?x4392 (div (- (div (- ?x5564 1) 12) 1) 100)) (div (- (div (- ?x5564 1) 12) 1) 400))))
(let ((?x5890 (+ (+ (- (+ (+ ?x5422 ?x5408) (- ?x5707 1)) 730179) 366) 730179)))
(let ((?x4675 (mod ?x5890 146097)))
(let ((?x4676 (div ?x4675 36524)))
(let ((?x5861 (ite (<= 4 ?x4676) 3 ?x4676)))
(let ((?x2750 (- ?x4675 (* ?x5861 36524))))
(let ((?x4080 (mod ?x2750 1461)))
(let ((?x4573 (div ?x4080 365)))
(let ((?x4660 (ite (<= 4 ?x4573) 3 ?x4573)))
(let ((?x2210 (+ (+ (* (div ?x5890 146097) 400) (* ?x5861 100)) (* (div ?x2750 1461) 4))))
(let ((?x2258 (+ (+ ?x2210 ?x4660) 1)))
(let (($x4364 (or (and (= (mod ?x2258 4) 0) (and (distinct (mod ?x2258 100) 0) true)) (= (mod ?x2258 400) 0))))
(let ((?x3711 (- ?x4080 (* ?x4660 365))))
(let ((?x5370 (ite $x4364 31 31)))
(let (($x5926 (>= ?x3711 ?x5370)))
(let ((?x5343 (ite $x5926 (+ (- ?x3711 ?x5370) 1) (+ (- ?x3711 (ite $x4364 0 0)) 1))))
(let ((?x3679 (ite $x4364 60 59)))
(let (($x4708 (>= ?x3711 ?x3679)))
(let ((?x3284 (ite $x4364 91 90)))
(let (($x5913 (>= ?x3711 ?x3284)))
(let ((?x4369 (ite $x5913 (+ (- ?x3711 ?x3284) 1) (ite $x4708 (+ (- ?x3711 ?x3679) 1) ?x5343))))
(let ((?x4673 (ite $x4364 121 120)))
(let (($x3819 (>= ?x3711 ?x4673)))
(let ((?x2110 (ite $x4364 152 151)))
(let (($x4695 (>= ?x3711 ?x2110)))
(let ((?x5328 (ite $x4695 (+ (- ?x3711 ?x2110) 1) (ite $x3819 (+ (- ?x3711 ?x4673) 1) ?x4369))))
(let ((?x4667 (ite $x4364 182 181)))
(let (($x5915 (>= ?x3711 ?x4667)))
(let ((?x3422 (ite $x4364 213 212)))
(let (($x5902 (>= ?x3711 ?x3422)))
(let ((?x5322 (ite $x5902 (+ (- ?x3711 ?x3422) 1) (ite $x5915 (+ (- ?x3711 ?x4667) 1) ?x5328))))
(let ((?x4565 (ite $x4364 244 243)))
(let (($x5904 (>= ?x3711 ?x4565)))
(let ((?x4686 (ite $x4364 274 273)))
(let (($x4208 (>= ?x3711 ?x4686)))
(let ((?x455 (ite $x4208 (+ (- ?x3711 ?x4686) 1) (ite $x5904 (+ (- ?x3711 ?x4565) 1) ?x5322))))
(let ((?x4707 (ite $x4364 305 304)))
(let (($x5302 (>= ?x3711 ?x4707)))
(let ((?x5923 (ite $x4364 335 334)))
(let (($x5289 (>= ?x3711 ?x5923)))
(let ((?x4464 (ite $x5289 (+ (- ?x3711 ?x5923) 1) (ite $x5302 (+ (- ?x3711 ?x4707) 1) ?x455))))
(let (($x5719 (= 366 0)))
(let ((?x3907 (+ (+ x_months 12) 24003)))
(let ((?x5791 (- ?x3907 (* (div (- ?x3907 1) 12) 12))))
(let ((?x1553 (ite (or (= ?x5791 4) (= ?x5791 6) (= ?x5791 9) (= ?x5791 11)) 30 31)))
(let (($x5743 (and (= (mod (div (- ?x3907 1) 12) 4) 0) (and (distinct (mod (div (- ?x3907 1) 12) 100) 0) true))))
(let (($x3611 (or $x5743 (= (mod (div (- ?x3907 1) 12) 400) 0))))
(let ((?x1028 (ite (= ?x5791 2) (ite $x3611 29 28) ?x1553)))
(let ((?x5661 (ite $x4012 1 (ite (> ?x5587 ?x1028) ?x1028 ?x5587))))
(let ((?x5670 (ite (> 1 ?x5661) 1 (ite (> ?x5661 ?x1028) ?x1028 ?x5661))))
(let ((?x5112 (ite (= 2 ?x5791) (ite $x3611 31 31) (ite (= 1 ?x5791) (ite $x3611 0 0) 0))))
(let ((?x5814 (ite (= 4 ?x5791) (ite $x3611 91 90) (ite (= 3 ?x5791) (ite $x3611 60 59) ?x5112))))
(let ((?x5827 (ite (= 6 ?x5791) (ite $x3611 152 151) (ite (= 5 ?x5791) (ite $x3611 121 120) ?x5814))))
(let ((?x4355 (ite (= 8 ?x5791) (ite $x3611 213 212) (ite (= 7 ?x5791) (ite $x3611 182 181) ?x5827))))
(let ((?x4383 (ite (= 10 ?x5791) (ite $x3611 274 273) (ite (= 9 ?x5791) (ite $x3611 244 243) ?x4355))))
(let ((?x5119 (ite (= 12 ?x5791) (ite $x3611 335 334) (ite (= 11 ?x5791) (ite $x3611 305 304) ?x4383))))
(let ((?x5577 (+ (* 365 (- (div (- ?x3907 1) 12) 1)) (div (- (div (- ?x3907 1) 12) 1) 4))))
(let ((?x5581 (+ (- ?x5577 (div (- (div (- ?x3907 1) 12) 1) 100)) (div (- (div (- ?x3907 1) 12) 1) 400))))
(let ((?x5117 (+ (+ (- (+ (+ ?x5581 ?x5119) (- ?x5670 1)) 730179) 0) 730179)))
(let ((?x5114 (mod ?x5117 146097)))
(let ((?x5115 (div ?x5114 36524)))
(let ((?x5551 (ite (<= 4 ?x5115) 3 ?x5115)))
(let ((?x5558 (- ?x5114 (* ?x5551 36524))))
(let ((?x2666 (mod ?x5558 1461)))
(let ((?x4382 (div ?x2666 365)))
(let ((?x4372 (ite (<= 4 ?x4382) 3 ?x4382)))
(let ((?x4576 (+ (+ (* (div ?x5117 146097) 400) (* ?x5551 100)) (* (div ?x5558 1461) 4))))
(let ((?x5067 (+ (+ ?x4576 ?x4372) 1)))
(let (($x4130 (or (and (= (mod ?x5067 4) 0) (and (distinct (mod ?x5067 100) 0) true)) (= (mod ?x5067 400) 0))))
(let ((?x4357 (- ?x2666 (* ?x4372 365))))
(let ((?x532 (ite $x4130 31 31)))
(let (($x5539 (>= ?x4357 ?x532)))
(let ((?x1605 (ite $x5539 (+ (- ?x4357 ?x532) 1) (+ (- ?x4357 (ite $x4130 0 0)) 1))))
(let ((?x2374 (ite $x4130 60 59)))
(let (($x4539 (>= ?x4357 ?x2374)))
(let ((?x4346 (ite $x4130 91 90)))
(let (($x5541 (>= ?x4357 ?x4346)))
(let ((?x4351 (ite $x5541 (+ (- ?x4357 ?x4346) 1) (ite $x4539 (+ (- ?x4357 ?x2374) 1) ?x1605))))
(let ((?x4347 (ite $x4130 121 120)))
(let (($x4548 (>= ?x4357 ?x4347)))
(let ((?x4348 (ite $x4130 152 151)))
(let (($x5521 (>= ?x4357 ?x4348)))
(let ((?x5480 (ite $x5521 (+ (- ?x4357 ?x4348) 1) (ite $x4548 (+ (- ?x4357 ?x4347) 1) ?x4351))))
(let ((?x4349 (ite $x4130 182 181)))
(let (($x5528 (>= ?x4357 ?x4349)))
(let ((?x4532 (ite $x4130 213 212)))
(let (($x5527 (>= ?x4357 ?x4532)))
(let ((?x5473 (ite $x5527 (+ (- ?x4357 ?x4532) 1) (ite $x5528 (+ (- ?x4357 ?x4349) 1) ?x5480))))
(let ((?x5535 (ite $x4130 244 243)))
(let (($x5519 (>= ?x4357 ?x5535)))
(let ((?x4531 (ite $x4130 274 273)))
(let (($x5409 (>= ?x4357 ?x4531)))
(let ((?x1620 (ite $x5409 (+ (- ?x4357 ?x4531) 1) (ite $x5519 (+ (- ?x4357 ?x5535) 1) ?x5473))))
(let ((?x5538 (ite $x4130 305 304)))
(let (($x4323 (>= ?x4357 ?x5538)))
(let ((?x5536 (ite $x4130 335 334)))
(let (($x4540 (>= ?x4357 ?x5536)))
(let ((?x4350 (ite $x4540 (+ (- ?x4357 ?x5536) 1) (ite $x4323 (+ (- ?x4357 ?x5538) 1) ?x1620))))
(let (($x411 (= 0 0)))
(let ((?x4689 (ite $x3819 5 (ite $x5913 4 (ite $x4708 3 (ite $x5926 2 1))))))
(let ((?x4679 (ite $x5904 9 (ite $x5902 8 (ite $x5915 7 (ite $x4695 6 ?x4689))))))
(let ((?x5279 (ite $x5289 12 (ite $x5302 11 (ite $x4208 10 ?x4679)))))
(let ((?x5361 (+ (* (ite $x5719 (div (- ?x5564 1) 12) ?x2258) 12) (ite $x5719 ?x4322 ?x5279))))
(let ((?x5520 (ite $x4548 5 (ite $x5541 4 (ite $x4539 3 (ite $x5539 2 1))))))
(let ((?x5425 (ite $x5519 9 (ite $x5527 8 (ite $x5528 7 (ite $x5521 6 ?x5520))))))
(let ((?x4158 (+ (* (ite $x411 (div (- ?x3907 1) 12) ?x5067) 12) (ite $x411 ?x5791 (ite $x4540 12 (ite $x4323 11 (ite $x5409 10 ?x5425)))))))
(let (($x4442 (and (= (- ?x4158 24003) (- ?x5361 24003)) (= (- (ite $x411 ?x5670 ?x4350) 1) (- (ite $x5719 ?x5707 ?x4464) 1)))))
(not $x4442))))))))))))))))))))))))))))))))))))))))))))))))))))))))))))))))))))))))))))))))))))))))))))))))))))))))))))))))))))))))))))))
(check-sat)
